784 1568
1 2 1
1 29 2
2 3 1
2 30 2
3 4 1
3 31 4
4 5 5
4 32 5
5 6 3
5 33 1
6 7 5
6 34 1
7 8 2
7 35 1
8 9 1
8 36 1
9 10 4
9 37 4
10 11 5
10 38 2
11 12 1
11 39 3
12 13 3
12 40 5
13 14 4
13 41 1
14 15 1
14 42 5
15 16 3
15 43 3
16 17 5
16 44 1
17 18 3
17 45 3
18 19 4
18 46 3
19 20 2
19 47 3
20 21 1
20 48 3
21 22 2
21 49 3
22 23 5
22 50 5
23 24 4
23 51 2
24 25 1
24 52 2
25 26 1
25 53 5
26 27 3
26 54 2
27 28 2
27 55 5
28 56 2
29 30 5
29 57 2
30 31 4
30 58 2
31 32 2
31 59 2
32 33 1
32 60 1
33 34 5
33 61 3
34 35 3
34 62 5
35 36 5
35 63 1
36 37 2
36 64 1
37 38 3
37 65 1
38 39 3
38 66 3
39 40 2
39 67 4
40 41 4
40 68 4
41 42 1
41 69 3
42 43 3
42 70 4
43 44 1
43 71 1
44 45 5
44 72 1
45 46 5
45 73 3
46 47 4
46 74 1
47 48 3
47 75 2
48 49 2
48 76 4
49 50 2
49 77 2
50 51 2
50 78 2
51 52 1
51 79 4
52 53 5
52 80 5
53 54 3
53 81 3
54 55 2
54 82 2
55 56 2
55 83 1
56 84 5
57 58 3
57 85 5
58 59 1
58 86 1
59 60 1
59 87 5
60 61 1
60 88 2
61 62 3
61 89 4
62 63 5
62 90 4
63 64 3
63 91 1
64 65 2
64 92 5
65 66 2
65 93 1
66 67 3
66 94 2
67 68 3
67 95 2
68 69 1
68 96 3
69 70 4
69 97 5
70 71 5
70 98 2
71 72 2
71 99 4
72 73 4
72 100 2
73 74 2
73 101 4
74 75 2
74 102 4
75 76 2
75 103 2
76 77 5
76 104 4
77 78 1
77 105 5
78 79 5
78 106 4
79 80 4
79 107 4
80 81 5
80 108 1
81 82 4
81 109 4
82 83 5
82 110 4
83 84 5
83 111 1
84 112 4
85 86 2
85 113 1
86 87 3
86 114 2
87 88 2
87 115 1
88 89 1
88 116 2
89 90 5
89 117 1
90 91 3
90 118 1
91 92 3
91 119 1
92 93 4
92 120 1
93 94 3
93 121 1
94 95 3
94 122 1
95 96 5
95 123 1
96 97 2
96 124 4
97 98 2
97 125 1
98 99 2
98 126 2
99 100 4
99 127 1
100 101 3
100 128 2
101 102 3
101 129 4
102 103 1
102 130 1
103 104 3
103 131 4
104 105 5
104 132 4
105 106 2
105 133 1
106 107 1
106 134 5
107 108 4
107 135 1
108 109 4
108 136 4
109 110 2
109 137 3
110 111 1
110 138 1
111 112 1
111 139 1
112 140 5
113 114 4
113 141 1
114 115 3
114 142 1
115 116 4
115 143 4
116 117 5
116 144 1
117 118 5
117 145 3
118 119 1
118 146 3
119 120 4
119 147 4
120 121 2
120 148 4
121 122 3
121 149 2
122 123 4
122 150 1
123 124 2
123 151 2
124 125 2
124 152 3
125 126 1
125 153 5
126 127 5
126 154 2
127 128 5
127 155 4
128 129 2
128 156 3
129 130 5
129 157 2
130 131 1
130 158 1
131 132 1
131 159 4
132 133 3
132 160 4
133 134 1
133 161 2
134 135 2
134 162 2
135 136 1
135 163 4
136 137 1
136 164 3
137 138 5
137 165 1
138 139 3
138 166 3
139 140 3
139 167 3
140 168 2
141 142 5
141 169 5
142 143 4
142 170 3
143 144 1
143 171 4
144 145 4
144 172 4
145 146 2
145 173 4
146 147 2
146 174 4
147 148 2
147 175 5
148 149 2
148 176 2
149 150 2
149 177 5
150 151 4
150 178 5
151 152 1
151 179 1
152 153 1
152 180 4
153 154 5
153 181 5
154 155 5
154 182 2
155 156 4
155 183 2
156 157 5
156 184 1
157 158 3
157 185 5
158 159 4
158 186 3
159 160 4
159 187 3
160 161 1
160 188 4
161 162 4
161 189 4
162 163 4
162 190 3
163 164 1
163 191 3
164 165 3
164 192 3
165 166 5
165 193 1
166 167 3
166 194 2
167 168 5
167 195 4
168 196 3
169 170 2
169 197 5
170 171 5
170 198 4
171 172 1
171 199 1
172 173 4
172 200 5
173 174 2
173 201 2
174 175 3
174 202 1
175 176 3
175 203 2
176 177 4
176 204 5
177 178 1
177 205 3
178 179 5
178 206 4
179 180 4
179 207 4
180 181 2
180 208 1
181 182 4
181 209 2
182 183 3
182 210 1
183 184 4
183 211 5
184 185 3
184 212 1
185 186 1
185 213 1
186 187 1
186 214 4
187 188 5
187 215 4
188 189 2
188 216 2
189 190 3
189 217 2
190 191 3
190 218 4
191 192 2
191 219 2
192 193 3
192 220 1
193 194 1
193 221 1
194 195 4
194 222 4
195 196 1
195 223 4
196 224 3
197 198 3
197 225 2
198 199 4
198 226 3
199 200 2
199 227 1
200 201 1
200 228 5
201 202 2
201 229 2
202 203 4
202 230 1
203 204 1
203 231 5
204 205 2
204 232 3
205 206 5
205 233 3
206 207 1
206 234 1
207 208 1
207 235 2
208 209 2
208 236 5
209 210 4
209 237 5
210 211 2
210 238 1
211 212 4
211 239 4
212 213 3
212 240 3
213 214 3
213 241 5
214 215 1
214 242 4
215 216 3
215 243 5
216 217 5
216 244 2
217 218 4
217 245 5
218 219 5
218 246 5
219 220 1
219 247 4
220 221 2
220 248 5
221 222 2
221 249 4
222 223 2
222 250 2
223 224 1
223 251 1
224 252 2
225 226 3
225 253 3
226 227 4
226 254 2
227 228 2
227 255 4
228 229 3
228 256 3
229 230 5
229 257 2
230 231 4
230 258 4
231 232 5
231 259 2
232 233 2
232 260 1
233 234 3
233 261 2
234 235 3
234 262 3
235 236 3
235 263 2
236 237 5
236 264 3
237 238 4
237 265 3
238 239 2
238 266 4
239 240 4
239 267 4
240 241 3
240 268 3
241 242 3
241 269 3
242 243 3
242 270 1
243 244 5
243 271 3
244 245 2
244 272 2
245 246 3
245 273 5
246 247 5
246 274 5
247 248 3
247 275 5
248 249 2
248 276 4
249 250 4
249 277 2
250 251 3
250 278 4
251 252 2
251 279 2
252 280 4
253 254 5
253 281 5
254 255 4
254 282 1
255 256 2
255 283 2
256 257 2
256 284 3
257 258 4
257 285 4
258 259 4
258 286 1
259 260 3
259 287 3
260 261 1
260 288 2
261 262 4
261 289 4
262 263 2
262 290 2
263 264 1
263 291 4
264 265 3
264 292 4
265 266 5
265 293 1
266 267 4
266 294 5
267 268 2
267 295 2
268 269 1
268 296 2
269 270 5
269 297 2
270 271 3
270 298 1
271 272 5
271 299 5
272 273 5
272 300 3
273 274 5
273 301 5
274 275 5
274 302 3
275 276 5
275 303 2
276 277 4
276 304 4
277 278 1
277 305 2
278 279 2
278 306 2
279 280 1
279 307 3
280 308 4
281 282 2
281 309 4
282 283 1
282 310 4
283 284 3
283 311 4
284 285 5
284 312 2
285 286 2
285 313 2
286 287 2
286 314 2
287 288 5
287 315 3
288 289 4
288 316 1
289 290 1
289 317 5
290 291 5
290 318 5
291 292 2
291 319 4
292 293 4
292 320 2
293 294 4
293 321 3
294 295 3
294 322 2
295 296 2
295 323 3
296 297 4
296 324 1
297 298 1
297 325 5
298 299 1
298 326 2
299 300 2
299 327 4
300 301 1
300 328 1
301 302 5
301 329 3
302 303 4
302 330 4
303 304 5
303 331 5
304 305 1
304 332 5
305 306 1
305 333 1
306 307 2
306 334 3
307 308 1
307 335 2
308 336 2
309 310 2
309 337 1
310 311 4
310 338 3
311 312 4
311 339 4
312 313 1
312 340 4
313 314 3
313 341 2
314 315 2
314 342 5
315 316 4
315 343 3
316 317 3
316 344 3
317 318 2
317 345 2
318 319 5
318 346 1
319 320 3
319 347 3
320 321 4
320 348 5
321 322 3
321 349 3
322 323 1
322 350 2
323 324 4
323 351 4
324 325 4
324 352 3
325 326 1
325 353 3
326 327 2
326 354 3
327 328 2
327 355 2
328 329 2
328 356 2
329 330 2
329 357 2
330 331 1
330 358 4
331 332 2
331 359 5
332 333 3
332 360 1
333 334 4
333 361 1
334 335 1
334 362 3
335 336 1
335 363 3
336 364 2
337 338 1
337 365 5
338 339 5
338 366 3
339 340 4
339 367 3
340 341 1
340 368 2
341 342 1
341 369 1
342 343 5
342 370 2
343 344 3
343 371 5
344 345 2
344 372 5
345 346 4
345 373 4
346 347 4
346 374 2
347 348 1
347 375 1
348 349 3
348 376 4
349 350 3
349 377 4
350 351 4
350 378 3
351 352 3
351 379 3
352 353 4
352 380 5
353 354 4
353 381 3
354 355 4
354 382 4
355 356 3
355 383 4
356 357 2
356 384 4
357 358 4
357 385 5
358 359 1
358 386 1
359 360 3
359 387 4
360 361 3
360 388 5
361 362 1
361 389 1
362 363 3
362 390 1
363 364 1
363 391 1
364 392 2
365 366 4
365 393 1
366 367 4
366 394 2
367 368 4
367 395 5
368 369 1
368 396 3
369 370 5
369 397 2
370 371 3
370 398 4
371 372 2
371 399 2
372 373 3
372 400 1
373 374 3
373 401 5
374 375 3
374 402 3
375 376 4
375 403 5
376 377 3
376 404 5
377 378 3
377 405 5
378 379 3
378 406 4
379 380 1
379 407 1
380 381 1
380 408 5
381 382 4
381 409 2
382 383 3
382 410 4
383 384 1
383 411 4
384 385 3
384 412 2
385 386 3
385 413 2
386 387 4
386 414 4
387 388 5
387 415 1
388 389 2
388 416 2
389 390 2
389 417 4
390 391 5
390 418 3
391 392 4
391 419 1
392 420 2
393 394 4
393 421 4
394 395 3
394 422 4
395 396 4
395 423 5
396 397 2
396 424 5
397 398 5
397 425 1
398 399 3
398 426 5
399 400 1
399 427 3
400 401 3
400 428 4
401 402 4
401 429 2
402 403 2
402 430 2
403 404 3
403 431 5
404 405 3
404 432 1
405 406 3
405 433 2
406 407 1
406 434 2
407 408 4
407 435 3
408 409 5
408 436 2
409 410 3
409 437 2
410 411 5
410 438 3
411 412 5
411 439 5
412 413 3
412 440 5
413 414 2
413 441 3
414 415 1
414 442 3
415 416 4
415 443 4
416 417 4
416 444 3
417 418 4
417 445 4
418 419 1
418 446 1
419 420 2
419 447 2
420 448 2
421 422 5
421 449 5
422 423 3
422 450 1
423 424 1
423 451 4
424 425 3
424 452 5
425 426 2
425 453 1
426 427 2
426 454 3
427 428 3
427 455 5
428 429 5
428 456 2
429 430 1
429 457 1
430 431 4
430 458 2
431 432 3
431 459 4
432 433 2
432 460 2
433 434 3
433 461 4
434 435 1
434 462 3
435 436 4
435 463 1
436 437 2
436 464 2
437 438 2
437 465 1
438 439 2
438 466 2
439 440 4
439 467 2
440 441 5
440 468 5
441 442 5
441 469 3
442 443 4
442 470 2
443 444 1
443 471 1
444 445 4
444 472 1
445 446 1
445 473 1
446 447 2
446 474 2
447 448 1
447 475 4
448 476 4
449 450 1
449 477 3
450 451 5
450 478 5
451 452 5
451 479 3
452 453 4
452 480 2
453 454 1
453 481 2
454 455 3
454 482 3
455 456 5
455 483 1
456 457 1
456 484 3
457 458 3
457 485 5
458 459 1
458 486 2
459 460 1
459 487 3
460 461 1
460 488 4
461 462 2
461 489 4
462 463 3
462 490 1
463 464 1
463 491 2
464 465 5
464 492 4
465 466 1
465 493 2
466 467 3
466 494 5
467 468 4
467 495 5
468 469 1
468 496 1
469 470 3
469 497 4
470 471 2
470 498 2
471 472 1
471 499 1
472 473 1
472 500 1
473 474 2
473 501 2
474 475 5
474 502 4
475 476 3
475 503 3
476 504 3
477 478 4
477 505 5
478 479 2
478 506 5
479 480 3
479 507 1
480 481 3
480 508 5
481 482 2
481 509 4
482 483 5
482 510 4
483 484 1
483 511 1
484 485 3
484 512 5
485 486 1
485 513 1
486 487 5
486 514 2
487 488 4
487 515 1
488 489 3
488 516 2
489 490 3
489 517 4
490 491 2
490 518 1
491 492 2
491 519 1
492 493 5
492 520 1
493 494 1
493 521 3
494 495 3
494 522 3
495 496 5
495 523 3
496 497 2
496 524 5
497 498 5
497 525 3
498 499 1
498 526 2
499 500 5
499 527 5
500 501 1
500 528 3
501 502 3
501 529 2
502 503 5
502 530 3
503 504 5
503 531 5
504 532 1
505 506 3
505 533 3
506 507 4
506 534 4
507 508 1
507 535 1
508 509 1
508 536 1
509 510 3
509 537 2
510 511 5
510 538 5
511 512 5
511 539 3
512 513 1
512 540 1
513 514 5
513 541 4
514 515 2
514 542 4
515 516 3
515 543 3
516 517 1
516 544 5
517 518 3
517 545 5
518 519 2
518 546 2
519 520 5
519 547 4
520 521 1
520 548 4
521 522 5
521 549 1
522 523 1
522 550 5
523 524 3
523 551 4
524 525 1
524 552 3
525 526 3
525 553 1
526 527 1
526 554 4
527 528 4
527 555 4
528 529 2
528 556 4
529 530 3
529 557 1
530 531 4
530 558 4
531 532 1
531 559 1
532 560 5
533 534 3
533 561 3
534 535 2
534 562 2
535 536 1
535 563 5
536 537 4
536 564 3
537 538 4
537 565 2
538 539 5
538 566 1
539 540 3
539 567 2
540 541 5
540 568 5
541 542 2
541 569 3
542 543 5
542 570 4
543 544 3
543 571 5
544 545 1
544 572 3
545 546 2
545 573 4
546 547 2
546 574 1
547 548 1
547 575 1
548 549 2
548 576 1
549 550 2
549 577 1
550 551 1
550 578 5
551 552 3
551 579 2
552 553 3
552 580 2
553 554 2
553 581 3
554 555 2
554 582 2
555 556 5
555 583 1
556 557 2
556 584 1
557 558 1
557 585 1
558 559 1
558 586 5
559 560 5
559 587 3
560 588 2
561 562 4
561 589 4
562 563 3
562 590 1
563 564 1
563 591 3
564 565 5
564 592 1
565 566 4
565 593 5
566 567 4
566 594 3
567 568 5
567 595 5
568 569 4
568 596 2
569 570 2
569 597 2
570 571 5
570 598 1
571 572 3
571 599 2
572 573 2
572 600 4
573 574 5
573 601 5
574 575 4
574 602 5
575 576 1
575 603 1
576 577 1
576 604 4
577 578 4
577 605 2
578 579 3
578 606 5
579 580 3
579 607 1
580 581 2
580 608 2
581 582 4
581 609 5
582 583 4
582 610 1
583 584 4
583 611 2
584 585 3
584 612 4
585 586 4
585 613 2
586 587 3
586 614 3
587 588 5
587 615 5
588 616 5
589 590 3
589 617 2
590 591 1
590 618 1
591 592 2
591 619 1
592 593 2
592 620 3
593 594 1
593 621 2
594 595 4
594 622 5
595 596 3
595 623 4
596 597 2
596 624 1
597 598 3
597 625 5
598 599 2
598 626 5
599 600 5
599 627 3
600 601 1
600 628 4
601 602 3
601 629 5
602 603 4
602 630 2
603 604 3
603 631 2
604 605 1
604 632 4
605 606 2
605 633 1
606 607 3
606 634 2
607 608 2
607 635 5
608 609 1
608 636 4
609 610 1
609 637 1
610 611 4
610 638 2
611 612 2
611 639 5
612 613 3
612 640 1
613 614 5
613 641 4
614 615 1
614 642 4
615 616 3
615 643 4
616 644 1
617 618 4
617 645 2
618 619 1
618 646 5
619 620 1
619 647 5
620 621 3
620 648 4
621 622 4
621 649 4
622 623 4
622 650 2
623 624 1
623 651 5
624 625 1
624 652 2
625 626 3
625 653 4
626 627 1
626 654 2
627 628 5
627 655 2
628 629 3
628 656 5
629 630 3
629 657 3
630 631 1
630 658 4
631 632 4
631 659 1
632 633 3
632 660 3
633 634 3
633 661 4
634 635 1
634 662 5
635 636 3
635 663 2
636 637 4
636 664 3
637 638 3
637 665 2
638 639 3
638 666 4
639 640 2
639 667 1
640 641 3
640 668 5
641 642 3
641 669 3
642 643 4
642 670 4
643 644 5
643 671 2
644 672 3
645 646 3
645 673 2
646 647 3
646 674 3
647 648 5
647 675 3
648 649 5
648 676 3
649 650 3
649 677 1
650 651 1
650 678 3
651 652 3
651 679 2
652 653 4
652 680 2
653 654 1
653 681 1
654 655 3
654 682 5
655 656 1
655 683 5
656 657 2
656 684 2
657 658 1
657 685 5
658 659 5
658 686 5
659 660 1
659 687 4
660 661 4
660 688 3
661 662 5
661 689 1
662 663 5
662 690 2
663 664 1
663 691 1
664 665 2
664 692 4
665 666 4
665 693 3
666 667 2
666 694 5
667 668 2
667 695 4
668 669 4
668 696 2
669 670 2
669 697 2
670 671 1
670 698 1
671 672 1
671 699 2
672 700 1
673 674 3
673 701 1
674 675 3
674 702 2
675 676 5
675 703 1
676 677 5
676 704 4
677 678 1
677 705 4
678 679 1
678 706 3
679 680 1
679 707 1
680 681 1
680 708 1
681 682 2
681 709 1
682 683 1
682 710 3
683 684 4
683 711 1
684 685 3
684 712 5
685 686 1
685 713 4
686 687 5
686 714 1
687 688 1
687 715 5
688 689 3
688 716 2
689 690 1
689 717 2
690 691 1
690 718 3
691 692 5
691 719 3
692 693 3
692 720 4
693 694 1
693 721 5
694 695 3
694 722 2
695 696 5
695 723 1
696 697 5
696 724 3
697 698 5
697 725 4
698 699 5
698 726 4
699 700 4
699 727 1
700 728 5
701 702 1
701 729 3
702 703 2
702 730 4
703 704 1
703 731 2
704 705 3
704 732 3
705 706 2
705 733 3
706 707 4
706 734 2
707 708 5
707 735 5
708 709 1
708 736 1
709 710 2
709 737 4
710 711 2
710 738 5
711 712 2
711 739 3
712 713 2
712 740 5
713 714 4
713 741 2
714 715 4
714 742 3
715 716 5
715 743 2
716 717 2
716 744 5
717 718 3
717 745 2
718 719 5
718 746 3
719 720 3
719 747 5
720 721 2
720 748 2
721 722 4
721 749 2
722 723 3
722 750 3
723 724 2
723 751 3
724 725 1
724 752 3
725 726 1
725 753 1
726 727 1
726 754 4
727 728 5
727 755 4
728 756 1
729 730 1
729 757 1
730 731 2
730 758 4
731 732 5
731 759 3
732 733 5
732 760 4
733 734 2
733 761 3
734 735 3
734 762 5
735 736 1
735 763 1
736 737 1
736 764 3
737 738 2
737 765 1
738 739 1
738 766 5
739 740 2
739 767 4
740 741 4
740 768 1
741 742 5
741 769 4
742 743 4
742 770 5
743 744 5
743 771 2
744 745 3
744 772 5
745 746 1
745 773 3
746 747 3
746 774 5
747 748 2
747 775 1
748 749 1
748 776 1
749 750 4
749 777 2
750 751 4
750 778 1
751 752 4
751 779 4
752 753 1
752 780 5
753 754 3
753 781 1
754 755 5
754 782 4
755 756 4
755 783 5
756 784 1
757 758 3
758 759 4
759 760 5
760 761 1
761 762 3
762 763 4
763 764 5
764 765 4
765 766 1
766 767 1
767 768 4
768 769 1
769 770 2
770 771 4
771 772 1
772 773 1
773 774 3
774 775 3
775 776 3
776 777 4
777 778 1
778 779 5
779 780 1
780 781 5
781 782 4
782 783 3
783 784 3
1 757 3
2 758 4
3 759 4
4 760 5
5 761 3
6 762 1
7 763 5
8 764 4
9 765 2
10 766 4
11 767 5
12 768 5
13 769 1
14 770 1
15 771 1
16 772 5
17 773 4
18 774 5
19 775 3
20 776 3
21 777 1
22 778 4
23 779 2
24 780 3
25 781 4
26 782 5
27 783 2
28 784 1
1 28 1
29 56 3
57 84 1
85 112 3
113 140 2
141 168 3
169 196 4
197 224 5
225 252 5
253 280 2
281 308 4
309 336 2
337 364 3
365 392 4
393 420 2
421 448 1
449 476 2
477 504 2
505 532 4
533 560 1
561 588 3
589 616 2
617 644 3
645 672 1
673 700 5
701 728 3
729 756 4
757 784 2
